
Gurobi 6.5.1 (mac64) logging started Fri Jun 24 09:12:32 2016


Gurobi 6.5.1 (mac64) logging started Fri Jun 24 09:12:46 2016


Gurobi 6.5.1 (mac64) logging started Fri Jun 24 09:13:12 2016


Gurobi 6.5.1 (mac64) logging started Fri Jun 24 09:13:40 2016


Gurobi 6.5.1 (mac64) logging started Fri Jun 24 09:13:55 2016


Gurobi 6.5.1 (mac64) logging started Fri Jun 24 09:17:04 2016


Gurobi 6.5.1 (mac64) logging started Fri Jun 24 09:17:43 2016


Gurobi 6.5.1 (mac64) logging started Fri Jun 24 09:29:04 2016


Gurobi 6.5.1 (mac64) logging started Fri Jun 24 09:29:35 2016


Gurobi 6.5.1 (mac64) logging started Fri Jun 24 09:29:59 2016


Gurobi 6.5.1 (mac64) logging started Fri Jun 24 09:30:17 2016


Gurobi 6.5.1 (mac64) logging started Fri Jun 24 11:01:05 2016


Gurobi 6.5.1 (mac64) logging started Fri Jun 24 11:01:21 2016


Gurobi 6.5.1 (mac64) logging started Fri Jun 24 11:02:04 2016


Gurobi 6.5.1 (mac64) logging started Fri Jun 24 11:02:20 2016


Gurobi 6.5.1 (mac64) logging started Fri Jun 24 11:02:42 2016


Gurobi 6.5.1 (mac64) logging started Fri Jun 24 11:03:16 2016


Gurobi 6.5.1 (mac64) logging started Fri Jun 24 11:03:40 2016


Gurobi 6.5.1 (mac64) logging started Fri Jun 24 11:03:54 2016


Gurobi 6.5.1 (mac64) logging started Fri Jun 24 11:04:11 2016


Gurobi 6.5.1 (mac64) logging started Fri Jun 24 11:04:20 2016


Gurobi 6.5.1 (mac64) logging started Fri Jun 24 11:06:39 2016


Gurobi 6.5.1 (mac64) logging started Fri Jun 24 11:08:34 2016


Gurobi 6.5.1 (mac64) logging started Fri Jun 24 11:09:15 2016


Gurobi 6.5.1 (mac64) logging started Fri Jun 24 11:18:46 2016


Gurobi 6.5.1 (mac64) logging started Fri Jun 24 11:19:08 2016


Gurobi 6.5.1 (mac64) logging started Fri Jun 24 11:20:32 2016


Gurobi 6.5.1 (mac64) logging started Fri Jun 24 11:22:12 2016


Gurobi 6.5.1 (mac64) logging started Fri Jun 24 11:22:44 2016


Gurobi 6.5.1 (mac64) logging started Fri Jun 24 11:23:23 2016


Gurobi 6.5.1 (mac64) logging started Fri Jun 24 11:24:54 2016


Gurobi 6.5.1 (mac64) logging started Fri Jun 24 11:25:14 2016


Gurobi 6.5.1 (mac64) logging started Fri Jun 24 11:26:18 2016


Gurobi 6.5.1 (mac64) logging started Fri Jun 24 11:26:27 2016


Gurobi 6.5.1 (mac64) logging started Fri Jun 24 11:26:48 2016


Gurobi 6.5.1 (mac64) logging started Fri Jun 24 11:27:27 2016


Gurobi 6.5.1 (mac64) logging started Fri Jun 24 11:27:38 2016


Gurobi 6.5.1 (mac64) logging started Fri Jun 24 11:27:56 2016


Gurobi 6.5.1 (mac64) logging started Fri Jun 24 11:28:03 2016


Gurobi 6.5.1 (mac64) logging started Fri Jun 24 11:28:54 2016


Gurobi 6.5.1 (mac64) logging started Fri Jun 24 11:37:00 2016


Gurobi 6.5.1 (mac64) logging started Fri Jun 24 11:39:00 2016


Gurobi 6.5.1 (mac64) logging started Fri Jun 24 11:39:37 2016


Gurobi 6.5.1 (mac64) logging started Fri Jun 24 11:40:24 2016


Gurobi 6.5.1 (mac64) logging started Fri Jun 24 11:40:52 2016


Gurobi 6.5.1 (mac64) logging started Fri Jun 24 13:30:29 2016


Gurobi 6.5.1 (mac64) logging started Fri Jun 24 13:31:05 2016


Gurobi 6.5.1 (mac64) logging started Fri Jun 24 13:31:20 2016


Gurobi 6.5.1 (mac64) logging started Fri Jun 24 13:39:55 2016


Gurobi 6.5.1 (mac64) logging started Fri Jun 24 13:40:10 2016


Gurobi 6.5.1 (mac64) logging started Fri Jun 24 13:41:24 2016


Gurobi 6.5.1 (mac64) logging started Fri Jun 24 13:42:00 2016


Gurobi 6.5.1 (mac64) logging started Fri Jun 24 13:42:17 2016


Gurobi 6.5.1 (mac64) logging started Fri Jun 24 13:43:11 2016


Gurobi 6.5.1 (mac64) logging started Fri Jun 24 13:44:35 2016


Gurobi 6.5.1 (mac64) logging started Fri Jun 24 13:44:46 2016


Gurobi 6.5.1 (mac64) logging started Fri Jun 24 13:44:55 2016


Gurobi 6.5.1 (mac64) logging started Fri Jun 24 13:45:03 2016


Gurobi 6.5.1 (mac64) logging started Fri Jun 24 13:46:02 2016


Gurobi 6.5.1 (mac64) logging started Fri Jun 24 13:46:07 2016


Gurobi 6.5.1 (mac64) logging started Fri Jun 24 13:47:01 2016


Gurobi 6.5.1 (mac64) logging started Fri Jun 24 13:47:21 2016


Gurobi 6.5.1 (mac64) logging started Fri Jun 24 13:47:45 2016


Gurobi 6.5.1 (mac64) logging started Fri Jun 24 13:48:02 2016


Gurobi 6.5.1 (mac64) logging started Fri Jun 24 13:48:16 2016


Gurobi 6.5.1 (mac64) logging started Fri Jun 24 13:48:22 2016


Gurobi 6.5.1 (mac64) logging started Fri Jun 24 13:48:46 2016


Gurobi 6.5.1 (mac64) logging started Fri Jun 24 13:48:55 2016


Gurobi 6.5.1 (mac64) logging started Fri Jun 24 13:49:01 2016


Gurobi 6.5.1 (mac64) logging started Fri Jun 24 13:49:07 2016


Gurobi 6.5.1 (mac64) logging started Fri Jun 24 13:49:18 2016


Gurobi 6.5.1 (mac64) logging started Fri Jun 24 13:49:23 2016


Gurobi 6.5.1 (mac64) logging started Fri Jun 24 13:49:31 2016


Gurobi 6.5.1 (mac64) logging started Fri Jun 24 13:49:54 2016


Gurobi 6.5.1 (mac64) logging started Fri Jun 24 13:49:59 2016


Gurobi 6.5.1 (mac64) logging started Fri Jun 24 13:50:06 2016


Gurobi 6.5.1 (mac64) logging started Fri Jun 24 13:50:11 2016


Gurobi 6.5.1 (mac64) logging started Fri Jun 24 13:50:26 2016


Gurobi 6.5.1 (mac64) logging started Fri Jun 24 13:52:27 2016


Gurobi 6.5.1 (mac64) logging started Fri Jun 24 13:52:37 2016


Gurobi 6.5.1 (mac64) logging started Fri Jun 24 13:53:00 2016


Gurobi 6.5.1 (mac64) logging started Fri Jun 24 13:55:14 2016


Gurobi 6.5.1 (mac64) logging started Fri Jun 24 13:56:49 2016


Gurobi 6.5.1 (mac64) logging started Fri Jun 24 13:57:13 2016


Gurobi 6.5.1 (mac64) logging started Fri Jun 24 13:58:23 2016


Gurobi 6.5.1 (mac64) logging started Fri Jun 24 14:00:31 2016


Gurobi 6.5.1 (mac64) logging started Fri Jun 24 14:12:13 2016


Gurobi 6.5.1 (mac64) logging started Fri Jun 24 14:12:59 2016


Gurobi 6.5.1 (mac64) logging started Fri Jun 24 14:13:56 2016


Gurobi 6.5.1 (mac64) logging started Fri Jun 24 14:21:27 2016


Gurobi 6.5.1 (mac64) logging started Fri Jun 24 14:21:37 2016


Gurobi 6.5.1 (mac64) logging started Fri Jun 24 14:21:48 2016


Gurobi 6.5.1 (mac64) logging started Fri Jun 24 14:21:57 2016


Gurobi 6.5.1 (mac64) logging started Fri Jun 24 14:22:36 2016


Gurobi 6.5.1 (mac64) logging started Fri Jun 24 14:23:00 2016


Gurobi 6.5.1 (mac64) logging started Fri Jun 24 14:23:09 2016


Gurobi 6.5.1 (mac64) logging started Fri Jun 24 14:24:30 2016


Gurobi 6.5.1 (mac64) logging started Fri Jun 24 14:27:00 2016


Gurobi 6.5.1 (mac64) logging started Fri Jun 24 14:27:48 2016


Gurobi 6.5.1 (mac64) logging started Fri Jun 24 14:28:28 2016


Gurobi 6.5.1 (mac64) logging started Fri Jun 24 14:29:31 2016


Gurobi 6.5.1 (mac64) logging started Fri Jun 24 14:30:03 2016


Gurobi 6.5.1 (mac64) logging started Fri Jun 24 15:25:57 2016


Gurobi 6.5.1 (mac64) logging started Fri Jun 24 15:27:19 2016


Gurobi 6.5.1 (mac64) logging started Fri Jun 24 15:32:35 2016


Gurobi 6.5.1 (mac64) logging started Fri Jun 24 15:35:47 2016


Gurobi 6.5.1 (mac64) logging started Fri Jun 24 15:36:53 2016


Gurobi 6.5.1 (mac64) logging started Fri Jun 24 15:39:22 2016


Gurobi 6.5.1 (mac64) logging started Fri Jun 24 15:40:51 2016


Gurobi 6.5.1 (mac64) logging started Fri Jun 24 15:40:57 2016


Gurobi 6.5.1 (mac64) logging started Fri Jun 24 15:41:14 2016


Gurobi 6.5.1 (mac64) logging started Fri Jun 24 15:42:18 2016


Gurobi 6.5.1 (mac64) logging started Fri Jun 24 15:48:31 2016


Gurobi 6.5.1 (mac64) logging started Mon Jun 27 09:37:35 2016


Gurobi 6.5.1 (mac64) logging started Mon Jun 27 09:39:00 2016


Gurobi 6.5.1 (mac64) logging started Mon Jun 27 09:39:10 2016


Gurobi 6.5.1 (mac64) logging started Mon Jun 27 09:40:03 2016


Gurobi 6.5.1 (mac64) logging started Mon Jun 27 09:40:08 2016


Gurobi 6.5.1 (mac64) logging started Mon Jun 27 09:47:35 2016


Gurobi 6.5.1 (mac64) logging started Mon Jun 27 09:56:39 2016


Gurobi 6.5.1 (mac64) logging started Mon Jun 27 09:58:12 2016


Gurobi 6.5.1 (mac64) logging started Mon Jun 27 09:58:36 2016


Gurobi 6.5.1 (mac64) logging started Mon Jun 27 09:59:09 2016


Gurobi 6.5.1 (mac64) logging started Mon Jun 27 10:02:06 2016


Gurobi 6.5.1 (mac64) logging started Mon Jun 27 10:02:34 2016


Gurobi 6.5.1 (mac64) logging started Mon Jun 27 10:03:02 2016


Gurobi 6.5.1 (mac64) logging started Mon Jun 27 10:03:19 2016


Gurobi 6.5.1 (mac64) logging started Mon Jun 27 10:04:00 2016


Gurobi 6.5.1 (mac64) logging started Mon Jun 27 10:45:49 2016


Gurobi 6.5.1 (mac64) logging started Mon Jun 27 10:47:38 2016


Gurobi 6.5.1 (mac64) logging started Mon Jun 27 10:49:20 2016


Gurobi 6.5.1 (mac64) logging started Mon Jun 27 10:51:03 2016


Gurobi 6.5.1 (mac64) logging started Mon Jun 27 10:51:21 2016


Gurobi 6.5.1 (mac64) logging started Mon Jun 27 10:52:36 2016


Gurobi 6.5.1 (mac64) logging started Mon Jun 27 10:52:50 2016


Gurobi 6.5.1 (mac64) logging started Mon Jun 27 11:04:31 2016


Gurobi 6.5.1 (mac64) logging started Mon Jun 27 11:04:44 2016


Gurobi 6.5.1 (mac64) logging started Mon Jun 27 11:05:19 2016


Gurobi 6.5.1 (mac64) logging started Mon Jun 27 11:05:29 2016


Gurobi 6.5.1 (mac64) logging started Mon Jun 27 11:06:06 2016


Gurobi 6.5.1 (mac64) logging started Mon Jun 27 11:06:17 2016


Gurobi 6.5.1 (mac64) logging started Mon Jun 27 11:06:23 2016


Gurobi 6.5.1 (mac64) logging started Mon Jun 27 11:14:34 2016


Gurobi 6.5.1 (mac64) logging started Mon Jun 27 11:26:46 2016


Gurobi 6.5.1 (mac64) logging started Mon Jun 27 11:29:49 2016


Gurobi 6.5.1 (mac64) logging started Mon Jun 27 11:30:19 2016


Gurobi 6.5.1 (mac64) logging started Mon Jun 27 11:30:33 2016


Gurobi 6.5.1 (mac64) logging started Mon Jun 27 11:30:39 2016


Gurobi 6.5.1 (mac64) logging started Mon Jun 27 11:30:50 2016


Gurobi 6.5.1 (mac64) logging started Mon Jun 27 11:31:51 2016


Gurobi 6.5.1 (mac64) logging started Mon Jun 27 13:13:22 2016


Gurobi 6.5.1 (mac64) logging started Mon Jun 27 13:13:59 2016


Gurobi 6.5.1 (mac64) logging started Mon Jun 27 13:14:36 2016


Gurobi 6.5.1 (mac64) logging started Mon Jun 27 13:25:51 2016


Gurobi 6.5.1 (mac64) logging started Mon Jun 27 13:28:16 2016


Gurobi 6.5.1 (mac64) logging started Mon Jun 27 13:31:29 2016


Gurobi 6.5.1 (mac64) logging started Mon Jun 27 13:32:45 2016


Gurobi 6.5.1 (mac64) logging started Mon Jun 27 13:32:54 2016


Gurobi 6.5.1 (mac64) logging started Mon Jun 27 13:42:50 2016


Gurobi 6.5.1 (mac64) logging started Mon Jun 27 13:48:36 2016


Gurobi 6.5.1 (mac64) logging started Mon Jun 27 13:48:42 2016


Gurobi 6.5.1 (mac64) logging started Mon Jun 27 14:09:15 2016


Gurobi 6.5.1 (mac64) logging started Mon Jun 27 14:09:32 2016


Gurobi 6.5.1 (mac64) logging started Mon Jun 27 14:09:51 2016


Gurobi 6.5.1 (mac64) logging started Mon Jun 27 14:09:57 2016


Gurobi 6.5.1 (mac64) logging started Mon Jun 27 14:10:19 2016


Gurobi 6.5.1 (mac64) logging started Mon Jun 27 14:10:57 2016


Gurobi 6.5.1 (mac64) logging started Mon Jun 27 14:11:31 2016


Gurobi 6.5.1 (mac64) logging started Mon Jun 27 14:11:37 2016


Gurobi 6.5.1 (mac64) logging started Mon Jun 27 14:54:52 2016

